40467 36273 
40499 36214 
39845 37276 
40514 35855 
40561 35808 
39887 37184 
40313 36342 
40360 36295 
40037 37014 
40195 36748 
39855 37243 
39539 37753 
40232 36597 
40116 36773 
38991 38281 
38820 38479 
38678 38497 
39181 38099 
38884 38351 
40226 36670 
38464 38707 
37908 38995 
39397 37771 
38293 38905 
39249 37998 
39212 38038 
38915 38290 
37876 39054 
39012 38179 
37841 39094 
37989 38988 
39852 37253 
39724 37622 
37257 39310 
37222 39350 
37773 39195 
37804 39134 
39820 37283 
39272 37811 
40081 36907 
37469 39278 
37500 39217 
36338 39535 
37048 39512 
39752 37384 
39783 37323 
35468 39594 
37417 39306 
39033 38110 
39966 37055 
40261 36497 
